c Random generated cnf formula, satisfiable: false
p cnf 10 50
1 -7 -3 0
-5 -7 -4 0
4 -8 -10 0
-2 9 5 0
7 -10 1 0
-7 6 4 0
1 7 -4 0
4 7 -9 0
-8 5 6 0
7 6 -5 0
-1 -7 -3 0
-4 6 -7 0
6 -2 -1 0
7 -5 -8 0
3 4 5 0
6 7 10 0
-4 1 8 0
-6 5 -9 0
-7 -3 9 0
5 -6 10 0
-5 -7 3 0
4 9 10 0
2 5 -6 0
8 -5 1 0
8 -3 7 0
6 -7 -2 0
4 -10 1 0
6 -5 -9 0
-4 -9 -6 0
9 -3 4 0
7 10 -1 0
-1 5 4 0
-7 3 -5 0
2 8 -9 0
1 5 3 0
-5 -8 2 0
-4 2 -10 0
9 3 -6 0
-3 -8 -4 0
-2 -6 -5 0
-1 -7 4 0
6 5 7 0
-1 3 -7 0
-1 -9 -2 0
-3 -1 -5 0
-7 -1 8 0
7 -1 4 0
-8 3 -6 0
6 -8 -9 0
-5 1 7 0
